(set-info :smt-lib-version 2.6)
(set-logic QF_SLIA)
(set-info :source |
Generated by: Joel Day, Thorsten Ehlers, Mitja Kulczynski, Federico Mora, Florin Manea, Dirk Nowotka, Danny Poulsen, Zhengyang Lu
Application: Test WOORPJE
Target solver: WOORPJE
Publications: Day, J. D., Ehlers, T., Kulczynski, M., Manea, F., Nowotka, D., & Poulsen, D. B. (2019). On solving word equations using SAT. In RP 2019
Description: Enriches a system of 30 word equations by suitable linear constraints
|)
(set-info :license "https://creativecommons.org/licenses/by/4.0/")
(set-info :category "random")
(set-info :status unknown)

(declare-fun H () String)
(declare-fun J () String)
(assert (= (str.++  "dbffebee" H H "dbbceffb" H "beee" H "dbaabbbcea" H H "bbcb")  (str.++  "dbffebeec" H "dbb" H "eff" J) ))
(assert (= (str.++  "afebadcfffaaddaabfcdfaddb" H H "adaafdfe" H "effc")  (str.++  "afebadcfffaaddaabf" H "dfaddbc" H "adaafdfeceff" H) ))
(assert (= (str.++  "ceeeffaaaa" H "fbbbbca" H "aeecdeff" H "fcb" H "eea" H "ebaa")  (str.++  H "eeeffaaaacfbbbbca" H "aee" H "deff" H "f" H "b" H "eea" H "ebaa") ))
(assert (>=(* (str.len J) 8) 48))
(assert (<=(* (str.len J) 1) 188))
(assert (>=(* (str.len H) 20) 20))
(check-sat)

(exit)
